pair_style	lj/cut 14.0
pair_modify	tail yes mix arithmetic

pair_coeff	1 1 0.195 3.75
pair_coeff	2 2 0.091 3.95

bond_style	harmonic
bond_coeff	1 268.0 1.54

angle_style	harmonic
angle_coeff	1 62.1 114.0

dihedral_style	opls
dihedral_coeff	1 1.411 -0.2710 3.145 0.000
